p cnf 200 1110
-101 -59 0
-101 -88 0
-101 86 0
-101 82 0
-101 30 0
-101 66 0
-101 -53 0
-101 26 0
-101 32 0
-101 19 0
101 59 88 -86 -82 -30 -66 53 -26 -32 -19 0
-102 13 0
-102 -90 0
-102 -47 0
-102 100 0
-102 66 0
-102 -8 0
-102 -74 0
-102 96 0
-102 88 0
-102 34 0
102 -13 90 47 -100 -66 8 74 -96 -88 -34 0
-103 32 0
-103 89 0
-103 98 0
-103 -39 0
-103 -84 0
-103 91 0
-103 -17 0
-103 -26 0
-103 40 0
-103 -11 0
103 -32 -89 -98 39 84 -91 17 26 -40 11 0
-104 -16 0
-104 63 0
-104 96 0
-104 -69 0
-104 -10 0
-104 -71 0
-104 65 0
-104 -11 0
-104 37 0
-104 -42 0
104 16 -63 -96 69 10 71 -65 11 -37 42 0
-105 5 0
-105 80 0
-105 3 0
-105 57 0
-105 -14 0
-105 10 0
-105 -73 0
-105 31 0
-105 -76 0
-105 -49 0
105 -5 -80 -3 -57 14 -10 73 -31 76 49 0
-106 93 0
-106 1 0
-106 34 0
-106 -13 0
-106 -46 0
-106 -63 0
-106 29 0
-106 68 0
-106 80 0
-106 -90 0
106 -93 -1 -34 13 46 63 -29 -68 -80 90 0
-107 -22 0
-107 -79 0
-107 -38 0
-107 6 0
-107 98 0
-107 60 0
-107 41 0
-107 -11 0
-107 65 0
-107 -10 0
107 22 79 38 -6 -98 -60 -41 11 -65 10 0
-108 -52 0
-108 -10 0
-108 -90 0
-108 65 0
-108 -20 0
-108 83 0
-108 75 0
-108 -37 0
-108 42 0
-108 22 0
108 52 10 90 -65 20 -83 -75 37 -42 -22 0
-109 18 0
-109 -28 0
-109 -10 0
-109 67 0
-109 -4 0
-109 83 0
-109 -20 0
-109 99 0
-109 -98 0
-109 -95 0
109 -18 28 10 -67 4 -83 20 -99 98 95 0
-110 -70 0
-110 26 0
-110 -24 0
-110 5 0
-110 -98 0
-110 85 0
-110 76 0
-110 -84 0
-110 67 0
-110 83 0
110 70 -26 24 -5 98 -85 -76 84 -67 -83 0
101 102 103 104 105 106 107 108 109 110 0
-111 -91 0
-111 99 0
-111 63 0
-111 34 0
-111 96 0
-111 78 0
-111 -55 0
-111 -56 0
-111 25 0
-111 -59 0
111 91 -99 -63 -34 -96 -78 55 56 -25 59 0
-112 -26 0
-112 -12 0
-112 81 0
-112 -14 0
-112 -69 0
-112 -6 0
-112 70 0
-112 80 0
-112 -47 0
-112 7 0
112 26 12 -81 14 69 6 -70 -80 47 -7 0
-113 -17 0
-113 -96 0
-113 20 0
-113 23 0
-113 81 0
-113 90 0
-113 -28 0
-113 14 0
-113 97 0
-113 39 0
113 17 96 -20 -23 -81 -90 28 -14 -97 -39 0
-114 -59 0
-114 -44 0
-114 40 0
-114 -78 0
-114 -85 0
-114 27 0
-114 -25 0
-114 -10 0
-114 48 0
-114 -97 0
114 59 44 -40 78 85 -27 25 10 -48 97 0
-115 55 0
-115 34 0
-115 -14 0
-115 -40 0
-115 -35 0
-115 -3 0
-115 -38 0
-115 79 0
-115 2 0
-115 70 0
115 -55 -34 14 40 35 3 38 -79 -2 -70 0
-116 -92 0
-116 88 0
-116 69 0
-116 -5 0
-116 -7 0
-116 -98 0
-116 85 0
-116 64 0
-116 100 0
-116 50 0
116 92 -88 -69 5 7 98 -85 -64 -100 -50 0
-117 -51 0
-117 -38 0
-117 53 0
-117 43 0
-117 -99 0
-117 -74 0
-117 -24 0
-117 15 0
-117 62 0
-117 -56 0
117 51 38 -53 -43 99 74 24 -15 -62 56 0
-118 -60 0
-118 46 0
-118 -73 0
-118 3 0
-118 17 0
-118 36 0
-118 -37 0
-118 -82 0
-118 81 0
-118 96 0
118 60 -46 73 -3 -17 -36 37 82 -81 -96 0
-119 -39 0
-119 -45 0
-119 -31 0
-119 57 0
-119 15 0
-119 63 0
-119 8 0
-119 -97 0
-119 -70 0
-119 28 0
119 39 45 31 -57 -15 -63 -8 97 70 -28 0
-120 -10 0
-120 29 0
-120 62 0
-120 13 0
-120 -78 0
-120 -18 0
-120 46 0
-120 24 0
-120 95 0
-120 -80 0
120 10 -29 -62 -13 78 18 -46 -24 -95 80 0
111 112 113 114 115 116 117 118 119 120 0
-121 81 0
-121 -73 0
-121 -69 0
-121 -68 0
-121 29 0
-121 -19 0
-121 5 0
-121 -35 0
-121 -12 0
-121 -47 0
121 -81 73 69 68 -29 19 -5 35 12 47 0
-122 -8 0
-122 14 0
-122 -17 0
-122 78 0
-122 32 0
-122 97 0
-122 16 0
-122 -18 0
-122 67 0
-122 -76 0
122 8 -14 17 -78 -32 -97 -16 18 -67 76 0
-123 -18 0
-123 -36 0
-123 -3 0
-123 37 0
-123 43 0
-123 53 0
-123 13 0
-123 -14 0
-123 -10 0
-123 46 0
123 18 36 3 -37 -43 -53 -13 14 10 -46 0
-124 3 0
-124 -21 0
-124 44 0
-124 -54 0
-124 79 0
-124 -81 0
-124 -38 0
-124 84 0
-124 -34 0
-124 -80 0
124 -3 21 -44 54 -79 81 38 -84 34 80 0
-125 -22 0
-125 55 0
-125 -52 0
-125 -48 0
-125 79 0
-125 -84 0
-125 21 0
-125 88 0
-125 -47 0
-125 -40 0
125 22 -55 52 48 -79 84 -21 -88 47 40 0
-126 87 0
-126 46 0
-126 42 0
-126 -68 0
-126 52 0
-126 -81 0
-126 -41 0
-126 -22 0
-126 -62 0
-126 50 0
126 -87 -46 -42 68 -52 81 41 22 62 -50 0
-127 -61 0
-127 -50 0
-127 74 0
-127 11 0
-127 28 0
-127 88 0
-127 -80 0
-127 9 0
-127 12 0
-127 -31 0
127 61 50 -74 -11 -28 -88 80 -9 -12 31 0
-128 -7 0
-128 43 0
-128 -49 0
-128 33 0
-128 -79 0
-128 -14 0
-128 57 0
-128 -67 0
-128 20 0
-128 -99 0
128 7 -43 49 -33 79 14 -57 67 -20 99 0
-129 59 0
-129 -99 0
-129 13 0
-129 -48 0
-129 70 0
-129 81 0
-129 28 0
-129 -16 0
-129 -68 0
-129 -84 0
129 -59 99 -13 48 -70 -81 -28 16 68 84 0
-130 26 0
-130 82 0
-130 -30 0
-130 92 0
-130 61 0
-130 -62 0
-130 -28 0
-130 -60 0
-130 -95 0
-130 -25 0
130 -26 -82 30 -92 -61 62 28 60 95 25 0
121 122 123 124 125 126 127 128 129 130 0
-131 40 0
-131 22 0
-131 24 0
-131 -4 0
-131 84 0
-131 71 0
-131 72 0
-131 -27 0
-131 64 0
-131 96 0
131 -40 -22 -24 4 -84 -71 -72 27 -64 -96 0
-132 44 0
-132 13 0
-132 -17 0
-132 59 0
-132 19 0
-132 -5 0
-132 -4 0
-132 -10 0
-132 98 0
-132 -49 0
132 -44 -13 17 -59 -19 5 4 10 -98 49 0
-133 97 0
-133 68 0
-133 20 0
-133 -52 0
-133 -30 0
-133 -89 0
-133 -25 0
-133 83 0
-133 -59 0
-133 13 0
133 -97 -68 -20 52 30 89 25 -83 59 -13 0
-134 8 0
-134 -98 0
-134 25 0
-134 65 0
-134 -51 0
-134 -86 0
-134 40 0
-134 35 0
-134 23 0
-134 93 0
134 -8 98 -25 -65 51 86 -40 -35 -23 -93 0
-135 90 0
-135 -45 0
-135 22 0
-135 94 0
-135 76 0
-135 26 0
-135 83 0
-135 20 0
-135 -33 0
-135 25 0
135 -90 45 -22 -94 -76 -26 -83 -20 33 -25 0
-136 -34 0
-136 -73 0
-136 92 0
-136 -91 0
-136 47 0
-136 70 0
-136 85 0
-136 78 0
-136 -52 0
-136 -42 0
136 34 73 -92 91 -47 -70 -85 -78 52 42 0
-137 -12 0
-137 -18 0
-137 -76 0
-137 64 0
-137 54 0
-137 -50 0
-137 -48 0
-137 71 0
-137 49 0
-137 57 0
137 12 18 76 -64 -54 50 48 -71 -49 -57 0
-138 -34 0
-138 -10 0
-138 -41 0
-138 -35 0
-138 -47 0
-138 7 0
-138 99 0
-138 -86 0
-138 -14 0
-138 27 0
138 34 10 41 35 47 -7 -99 86 14 -27 0
-139 47 0
-139 -87 0
-139 -97 0
-139 -39 0
-139 71 0
-139 -40 0
-139 68 0
-139 -55 0
-139 -12 0
-139 1 0
139 -47 87 97 39 -71 40 -68 55 12 -1 0
-140 -31 0
-140 61 0
-140 -21 0
-140 86 0
-140 46 0
-140 7 0
-140 5 0
-140 -64 0
-140 32 0
-140 -83 0
140 31 -61 21 -86 -46 -7 -5 64 -32 83 0
131 132 133 134 135 136 137 138 139 140 0
-141 72 0
-141 -5 0
-141 60 0
-141 71 0
-141 -74 0
-141 -39 0
-141 -70 0
-141 -86 0
-141 28 0
-141 17 0
141 -72 5 -60 -71 74 39 70 86 -28 -17 0
-142 77 0
-142 34 0
-142 -71 0
-142 -89 0
-142 56 0
-142 -67 0
-142 -32 0
-142 -75 0
-142 -28 0
-142 -15 0
142 -77 -34 71 89 -56 67 32 75 28 15 0
-143 -45 0
-143 26 0
-143 20 0
-143 -32 0
-143 28 0
-143 -53 0
-143 -9 0
-143 96 0
-143 100 0
-143 -61 0
143 45 -26 -20 32 -28 53 9 -96 -100 61 0
-144 33 0
-144 6 0
-144 8 0
-144 -84 0
-144 21 0
-144 32 0
-144 -99 0
-144 -100 0
-144 -89 0
-144 -1 0
144 -33 -6 -8 84 -21 -32 99 100 89 1 0
-145 97 0
-145 -36 0
-145 -29 0
-145 -66 0
-145 90 0
-145 59 0
-145 31 0
-145 -67 0
-145 75 0
-145 32 0
145 -97 36 29 66 -90 -59 -31 67 -75 -32 0
-146 25 0
-146 32 0
-146 -6 0
-146 -88 0
-146 97 0
-146 -29 0
-146 11 0
-146 63 0
-146 4 0
-146 -24 0
146 -25 -32 6 88 -97 29 -11 -63 -4 24 0
-147 -58 0
-147 16 0
-147 5 0
-147 96 0
-147 -57 0
-147 -91 0
-147 61 0
-147 41 0
-147 25 0
-147 -11 0
147 58 -16 -5 -96 57 91 -61 -41 -25 11 0
-148 -11 0
-148 92 0
-148 -62 0
-148 -28 0
-148 -35 0
-148 -50 0
-148 81 0
-148 83 0
-148 -8 0
-148 -98 0
148 11 -92 62 28 35 50 -81 -83 8 98 0
-149 27 0
-149 -38 0
-149 64 0
-149 -81 0
-149 72 0
-149 -83 0
-149 -32 0
-149 -86 0
-149 -2 0
-149 -90 0
149 -27 38 -64 81 -72 83 32 86 2 90 0
-150 70 0
-150 -56 0
-150 66 0
-150 -37 0
-150 72 0
-150 -21 0
-150 -87 0
-150 -33 0
-150 -44 0
-150 -38 0
150 -70 56 -66 37 -72 21 87 33 44 38 0
141 142 143 144 145 146 147 148 149 150 0
-151 -62 0
-151 69 0
-151 -26 0
-151 5 0
-151 7 0
-151 86 0
-151 33 0
-151 34 0
-151 -100 0
-151 65 0
151 62 -69 26 -5 -7 -86 -33 -34 100 -65 0
-152 -59 0
-152 53 0
-152 19 0
-152 52 0
-152 -67 0
-152 -39 0
-152 50 0
-152 -90 0
-152 -31 0
-152 91 0
152 59 -53 -19 -52 67 39 -50 90 31 -91 0
-153 -81 0
-153 -66 0
-153 -72 0
-153 -82 0
-153 -71 0
-153 7 0
-153 35 0
-153 -45 0
-153 -25 0
-153 -2 0
153 81 66 72 82 71 -7 -35 45 25 2 0
-154 -36 0
-154 15 0
-154 -72 0
-154 -51 0
-154 27 0
-154 46 0
-154 -69 0
-154 -34 0
-154 83 0
-154 -64 0
154 36 -15 72 51 -27 -46 69 34 -83 64 0
-155 100 0
-155 65 0
-155 -33 0
-155 95 0
-155 -91 0
-155 -84 0
-155 80 0
-155 47 0
-155 46 0
-155 79 0
155 -100 -65 33 -95 91 84 -80 -47 -46 -79 0
-156 -88 0
-156 4 0
-156 -43 0
-156 -91 0
-156 -12 0
-156 -26 0
-156 -65 0
-156 -95 0
-156 -93 0
-156 -19 0
156 88 -4 43 91 12 26 65 95 93 19 0
-157 58 0
-157 14 0
-157 -22 0
-157 -97 0
-157 -54 0
-157 95 0
-157 24 0
-157 -38 0
-157 -47 0
-157 -87 0
157 -58 -14 22 97 54 -95 -24 38 47 87 0
-158 29 0
-158 -54 0
-158 57 0
-158 -31 0
-158 -47 0
-158 1 0
-158 61 0
-158 -5 0
-158 51 0
-158 -62 0
158 -29 54 -57 31 47 -1 -61 5 -51 62 0
-159 -99 0
-159 45 0
-159 -36 0
-159 -28 0
-159 -42 0
-159 -90 0
-159 19 0
-159 2 0
-159 -8 0
-159 12 0
159 99 -45 36 28 42 90 -19 -2 8 -12 0
-160 -14 0
-160 8 0
-160 48 0
-160 -72 0
-160 -63 0
-160 3 0
-160 -57 0
-160 89 0
-160 -35 0
-160 -18 0
160 14 -8 -48 72 63 -3 57 -89 35 18 0
151 152 153 154 155 156 157 158 159 160 0
-161 -16 0
-161 -35 0
-161 -65 0
-161 -22 0
-161 -28 0
-161 15 0
-161 58 0
-161 -52 0
-161 -98 0
-161 -97 0
161 16 35 65 22 28 -15 -58 52 98 97 0
-162 11 0
-162 54 0
-162 98 0
-162 -60 0
-162 7 0
-162 1 0
-162 94 0
-162 53 0
-162 92 0
-162 -24 0
162 -11 -54 -98 60 -7 -1 -94 -53 -92 24 0
-163 -80 0
-163 -5 0
-163 47 0
-163 45 0
-163 -36 0
-163 -58 0
-163 82 0
-163 -63 0
-163 31 0
-163 77 0
163 80 5 -47 -45 36 58 -82 63 -31 -77 0
-164 56 0
-164 78 0
-164 15 0
-164 42 0
-164 -81 0
-164 100 0
-164 -32 0
-164 -25 0
-164 -96 0
-164 72 0
164 -56 -78 -15 -42 81 -100 32 25 96 -72 0
-165 2 0
-165 -24 0
-165 -45 0
-165 99 0
-165 -67 0
-165 47 0
-165 -69 0
-165 -93 0
-165 15 0
-165 -55 0
165 -2 24 45 -99 67 -47 69 93 -15 55 0
-166 55 0
-166 -42 0
-166 -80 0
-166 -20 0
-166 2 0
-166 -7 0
-166 -37 0
-166 -76 0
-166 12 0
-166 -24 0
166 -55 42 80 20 -2 7 37 76 -12 24 0
-167 -49 0
-167 -21 0
-167 99 0
-167 -44 0
-167 67 0
-167 59 0
-167 -43 0
-167 -86 0
-167 12 0
-167 40 0
167 49 21 -99 44 -67 -59 43 86 -12 -40 0
-168 52 0
-168 72 0
-168 -26 0
-168 1 0
-168 -62 0
-168 -12 0
-168 -17 0
-168 -80 0
-168 21 0
-168 -13 0
168 -52 -72 26 -1 62 12 17 80 -21 13 0
-169 41 0
-169 -2 0
-169 -89 0
-169 -36 0
-169 -69 0
-169 -16 0
-169 72 0
-169 -4 0
-169 -24 0
-169 52 0
169 -41 2 89 36 69 16 -72 4 24 -52 0
-170 -61 0
-170 -92 0
-170 31 0
-170 -87 0
-170 -80 0
-170 50 0
-170 79 0
-170 -53 0
-170 -60 0
-170 -55 0
170 61 92 -31 87 80 -50 -79 53 60 55 0
161 162 163 164 165 166 167 168 169 170 0
-171 61 0
-171 -74 0
-171 -68 0
-171 -27 0
-171 8 0
-171 37 0
-171 75 0
-171 97 0
-171 90 0
-171 87 0
171 -61 74 68 27 -8 -37 -75 -97 -90 -87 0
-172 -92 0
-172 12 0
-172 -58 0
-172 -40 0
-172 -94 0
-172 -53 0
-172 -99 0
-172 -56 0
-172 84 0
-172 96 0
172 92 -12 58 40 94 53 99 56 -84 -96 0
-173 99 0
-173 28 0
-173 30 0
-173 8 0
-173 -6 0
-173 -93 0
-173 77 0
-173 31 0
-173 -22 0
-173 69 0
173 -99 -28 -30 -8 6 93 -77 -31 22 -69 0
-174 99 0
-174 81 0
-174 43 0
-174 1 0
-174 -78 0
-174 6 0
-174 42 0
-174 -39 0
-174 3 0
-174 22 0
174 -99 -81 -43 -1 78 -6 -42 39 -3 -22 0
-175 -88 0
-175 -59 0
-175 -9 0
-175 50 0
-175 -53 0
-175 -48 0
-175 -21 0
-175 69 0
-175 -2 0
-175 -58 0
175 88 59 9 -50 53 48 21 -69 2 58 0
-176 -93 0
-176 -26 0
-176 29 0
-176 35 0
-176 55 0
-176 22 0
-176 -46 0
-176 71 0
-176 -69 0
-176 -8 0
176 93 26 -29 -35 -55 -22 46 -71 69 8 0
-177 50 0
-177 97 0
-177 72 0
-177 47 0
-177 -69 0
-177 -54 0
-177 10 0
-177 -16 0
-177 5 0
-177 63 0
177 -50 -97 -72 -47 69 54 -10 16 -5 -63 0
-178 -26 0
-178 22 0
-178 -30 0
-178 4 0
-178 -32 0
-178 -99 0
-178 65 0
-178 49 0
-178 48 0
-178 -53 0
178 26 -22 30 -4 32 99 -65 -49 -48 53 0
-179 -75 0
-179 -93 0
-179 -29 0
-179 -92 0
-179 -53 0
-179 -35 0
-179 -4 0
-179 52 0
-179 39 0
-179 -27 0
179 75 93 29 92 53 35 4 -52 -39 27 0
-180 -96 0
-180 29 0
-180 -66 0
-180 27 0
-180 60 0
-180 -49 0
-180 24 0
-180 -76 0
-180 -82 0
-180 9 0
180 96 -29 66 -27 -60 49 -24 76 82 -9 0
171 172 173 174 175 176 177 178 179 180 0
-181 59 0
-181 29 0
-181 -40 0
-181 -81 0
-181 -69 0
-181 -11 0
-181 -48 0
-181 -33 0
-181 -82 0
-181 -41 0
181 -59 -29 40 81 69 11 48 33 82 41 0
-182 39 0
-182 17 0
-182 71 0
-182 -33 0
-182 11 0
-182 32 0
-182 29 0
-182 -84 0
-182 61 0
-182 28 0
182 -39 -17 -71 33 -11 -32 -29 84 -61 -28 0
-183 -94 0
-183 91 0
-183 -49 0
-183 -23 0
-183 -68 0
-183 -84 0
-183 -30 0
-183 96 0
-183 63 0
-183 -24 0
183 94 -91 49 23 68 84 30 -96 -63 24 0
-184 8 0
-184 9 0
-184 -37 0
-184 -68 0
-184 27 0
-184 -7 0
-184 49 0
-184 -18 0
-184 2 0
-184 43 0
184 -8 -9 37 68 -27 7 -49 18 -2 -43 0
-185 -94 0
-185 -31 0
-185 47 0
-185 -61 0
-185 -82 0
-185 40 0
-185 79 0
-185 8 0
-185 38 0
-185 18 0
185 94 31 -47 61 82 -40 -79 -8 -38 -18 0
-186 100 0
-186 -98 0
-186 -78 0
-186 3 0
-186 -20 0
-186 51 0
-186 7 0
-186 -76 0
-186 -9 0
-186 -95 0
186 -100 98 78 -3 20 -51 -7 76 9 95 0
-187 -62 0
-187 -87 0
-187 -73 0
-187 -30 0
-187 -24 0
-187 -49 0
-187 45 0
-187 18 0
-187 81 0
-187 -51 0
187 62 87 73 30 24 49 -45 -18 -81 51 0
-188 -3 0
-188 -88 0
-188 -55 0
-188 -30 0
-188 9 0
-188 52 0
-188 -34 0
-188 -32 0
-188 81 0
-188 39 0
188 3 88 55 30 -9 -52 34 32 -81 -39 0
-189 -83 0
-189 -65 0
-189 -77 0
-189 29 0
-189 55 0
-189 -17 0
-189 -62 0
-189 26 0
-189 -34 0
-189 -74 0
189 83 65 77 -29 -55 17 62 -26 34 74 0
-190 -11 0
-190 22 0
-190 -62 0
-190 36 0
-190 45 0
-190 27 0
-190 -39 0
-190 99 0
-190 61 0
-190 55 0
190 11 -22 62 -36 -45 -27 39 -99 -61 -55 0
181 182 183 184 185 186 187 188 189 190 0
-191 -12 0
-191 96 0
-191 -65 0
-191 39 0
-191 -91 0
-191 62 0
-191 -24 0
-191 -76 0
-191 -71 0
-191 -25 0
191 12 -96 65 -39 91 -62 24 76 71 25 0
-192 -84 0
-192 71 0
-192 1 0
-192 -26 0
-192 -4 0
-192 96 0
-192 -58 0
-192 33 0
-192 -13 0
-192 77 0
192 84 -71 -1 26 4 -96 58 -33 13 -77 0
-193 -30 0
-193 97 0
-193 -65 0
-193 5 0
-193 -78 0
-193 7 0
-193 -50 0
-193 60 0
-193 -51 0
-193 -40 0
193 30 -97 65 -5 78 -7 50 -60 51 40 0
-194 -25 0
-194 23 0
-194 98 0
-194 69 0
-194 -41 0
-194 -83 0
-194 -32 0
-194 72 0
-194 -19 0
-194 31 0
194 25 -23 -98 -69 41 83 32 -72 19 -31 0
-195 -93 0
-195 -46 0
-195 -62 0
-195 36 0
-195 -50 0
-195 -68 0
-195 18 0
-195 -10 0
-195 37 0
-195 -47 0
195 93 46 62 -36 50 68 -18 10 -37 47 0
-196 -14 0
-196 81 0
-196 57 0
-196 -58 0
-196 92 0
-196 3 0
-196 96 0
-196 -97 0
-196 85 0
-196 46 0
196 14 -81 -57 58 -92 -3 -96 97 -85 -46 0
-197 90 0
-197 -33 0
-197 -59 0
-197 61 0
-197 74 0
-197 -84 0
-197 -40 0
-197 -97 0
-197 -25 0
-197 43 0
197 -90 33 59 -61 -74 84 40 97 25 -43 0
-198 22 0
-198 -61 0
-198 11 0
-198 16 0
-198 -98 0
-198 80 0
-198 56 0
-198 91 0
-198 -43 0
-198 59 0
198 -22 61 -11 -16 98 -80 -56 -91 43 -59 0
-199 -40 0
-199 -7 0
-199 -22 0
-199 86 0
-199 -29 0
-199 4 0
-199 -57 0
-199 5 0
-199 -35 0
-199 84 0
199 40 7 22 -86 29 -4 57 -5 35 -84 0
-200 -18 0
-200 53 0
-200 38 0
-200 43 0
-200 -83 0
-200 -82 0
-200 25 0
-200 88 0
-200 45 0
-200 8 0
200 18 -53 -38 -43 83 82 -25 -88 -45 -8 0
191 192 193 194 195 196 197 198 199 200 0
